; benchmark generated from python API
(set-info :status unknown)
(declare-fun cell_1_7 () Int)
(declare-fun cell_1_8 () Int)
(declare-fun cell_2_2 () Int)
(declare-fun cell_2_3 () Int)
(declare-fun cell_3_5 () Int)
(declare-fun cell_3_6 () Int)
(declare-fun cell_4_1 () Int)
(declare-fun cell_4_2 () Int)
(declare-fun cell_5_7 () Int)
(declare-fun cell_5_9 () Int)
(declare-fun cell_6_4 () Int)
(declare-fun cell_6_6 () Int)
(declare-fun cell_7_1 () Int)
(declare-fun cell_7_5 () Int)
(declare-fun cell_8_3 () Int)
(declare-fun cell_8_4 () Int)
(declare-fun cell_9_9 () Int)
(declare-fun cell_1_1 () Int)
(declare-fun cell_2_1 () Int)
(declare-fun cell_3_1 () Int)
(declare-fun cell_5_1 () Int)
(declare-fun cell_6_1 () Int)
(declare-fun cell_8_1 () Int)
(declare-fun cell_9_1 () Int)
(declare-fun cell_1_2 () Int)
(declare-fun cell_3_2 () Int)
(declare-fun cell_5_2 () Int)
(declare-fun cell_6_2 () Int)
(declare-fun cell_7_2 () Int)
(declare-fun cell_8_2 () Int)
(declare-fun cell_9_2 () Int)
(declare-fun cell_1_3 () Int)
(declare-fun cell_3_3 () Int)
(declare-fun cell_4_3 () Int)
(declare-fun cell_5_3 () Int)
(declare-fun cell_6_3 () Int)
(declare-fun cell_7_3 () Int)
(declare-fun cell_9_3 () Int)
(declare-fun cell_1_4 () Int)
(declare-fun cell_2_4 () Int)
(declare-fun cell_3_4 () Int)
(declare-fun cell_4_4 () Int)
(declare-fun cell_5_4 () Int)
(declare-fun cell_7_4 () Int)
(declare-fun cell_9_4 () Int)
(declare-fun cell_1_5 () Int)
(declare-fun cell_2_5 () Int)
(declare-fun cell_4_5 () Int)
(declare-fun cell_5_5 () Int)
(declare-fun cell_6_5 () Int)
(declare-fun cell_8_5 () Int)
(declare-fun cell_9_5 () Int)
(declare-fun cell_1_6 () Int)
(declare-fun cell_2_6 () Int)
(declare-fun cell_4_6 () Int)
(declare-fun cell_5_6 () Int)
(declare-fun cell_7_6 () Int)
(declare-fun cell_8_6 () Int)
(declare-fun cell_9_6 () Int)
(declare-fun cell_2_7 () Int)
(declare-fun cell_3_7 () Int)
(declare-fun cell_4_7 () Int)
(declare-fun cell_6_7 () Int)
(declare-fun cell_7_7 () Int)
(declare-fun cell_8_7 () Int)
(declare-fun cell_9_7 () Int)
(declare-fun cell_2_8 () Int)
(declare-fun cell_3_8 () Int)
(declare-fun cell_4_8 () Int)
(declare-fun cell_5_8 () Int)
(declare-fun cell_6_8 () Int)
(declare-fun cell_7_8 () Int)
(declare-fun cell_8_8 () Int)
(declare-fun cell_9_8 () Int)
(declare-fun cell_1_9 () Int)
(declare-fun cell_2_9 () Int)
(declare-fun cell_3_9 () Int)
(declare-fun cell_4_9 () Int)
(declare-fun cell_6_9 () Int)
(declare-fun cell_7_9 () Int)
(declare-fun cell_8_9 () Int)
(assert
 (= cell_1_7 2))
(assert
 (= cell_1_8 1))
(assert
 (= cell_2_2 2))
(assert
 (= cell_2_3 1))
(assert
 (= cell_3_5 1))
(assert
 (= cell_3_6 2))
(assert
 (= cell_4_1 2))
(assert
 (= cell_4_2 1))
(assert
 (= cell_5_7 1))
(assert
 (= cell_5_9 2))
(assert
 (= cell_6_4 2))
(assert
 (= cell_6_6 1))
(assert
 (= cell_7_1 1))
(assert
 (= cell_7_5 2))
(assert
 (= cell_8_3 2))
(assert
 (= cell_8_4 1))
(assert
 (= cell_9_9 1))
(assert
 (let (($x2157 (= cell_1_1 9)))
 (let (($x284 (= cell_1_1 8)))
 (let (($x1654 (= cell_1_1 7)))
 (let (($x2836 (= cell_1_1 6)))
 (let (($x2853 (= cell_1_1 5)))
 (let (($x439 (= cell_1_1 4)))
 (let (($x2980 (= cell_1_1 3)))
 (let (($x7323 (= cell_1_1 2)))
 (let (($x2391 (= cell_1_1 1)))
 (or $x2391 $x7323 $x2980 $x439 $x2853 $x2836 $x1654 $x284 $x2157)))))))))))
(assert
 (let (($x2068 (= cell_2_1 9)))
 (let (($x3489 (= cell_2_1 8)))
 (let (($x7519 (= cell_2_1 7)))
 (let (($x6828 (= cell_2_1 6)))
 (let (($x7634 (= cell_2_1 5)))
 (let (($x2943 (= cell_2_1 4)))
 (let (($x2609 (= cell_2_1 3)))
 (let (($x1602 (= cell_2_1 2)))
 (let (($x3451 (= cell_2_1 1)))
 (or $x3451 $x1602 $x2609 $x2943 $x7634 $x6828 $x7519 $x3489 $x2068)))))))))))
(assert
 (let (($x690 (= cell_3_1 9)))
 (let (($x2434 (= cell_3_1 8)))
 (let (($x3114 (= cell_3_1 7)))
 (let (($x92 (= cell_3_1 6)))
 (let (($x1237 (= cell_3_1 5)))
 (let (($x2860 (= cell_3_1 4)))
 (let (($x1561 (= cell_3_1 3)))
 (let (($x1710 (= cell_3_1 2)))
 (let (($x670 (= cell_3_1 1)))
 (or $x670 $x1710 $x1561 $x2860 $x1237 $x92 $x3114 $x2434 $x690)))))))))))
(assert
 (let (($x7530 (= cell_4_1 2)))
 (or (= cell_4_1 1) $x7530 (= cell_4_1 3) (= cell_4_1 4) (= cell_4_1 5) (= cell_4_1 6) (= cell_4_1 7) (= cell_4_1 8) (= cell_4_1 9))))
(assert
 (let (($x4068 (= cell_5_1 9)))
 (let (($x7372 (= cell_5_1 8)))
 (let (($x2811 (= cell_5_1 7)))
 (let (($x3279 (= cell_5_1 6)))
 (let (($x1242 (= cell_5_1 5)))
 (let (($x2129 (= cell_5_1 4)))
 (let (($x2739 (= cell_5_1 3)))
 (let (($x6618 (= cell_5_1 2)))
 (let (($x2317 (= cell_5_1 1)))
 (or $x2317 $x6618 $x2739 $x2129 $x1242 $x3279 $x2811 $x7372 $x4068)))))))))))
(assert
 (let (($x325 (= cell_6_1 9)))
 (let (($x1630 (= cell_6_1 8)))
 (let (($x1621 (= cell_6_1 7)))
 (let (($x2421 (= cell_6_1 6)))
 (let (($x1355 (= cell_6_1 5)))
 (let (($x2270 (= cell_6_1 4)))
 (let (($x28 (= cell_6_1 3)))
 (let (($x4043 (= cell_6_1 2)))
 (let (($x661 (= cell_6_1 1)))
 (or $x661 $x4043 $x28 $x2270 $x1355 $x2421 $x1621 $x1630 $x325)))))))))))
(assert
 (let (($x3524 (= cell_7_1 1)))
 (or $x3524 (= cell_7_1 2) (= cell_7_1 3) (= cell_7_1 4) (= cell_7_1 5) (= cell_7_1 6) (= cell_7_1 7) (= cell_7_1 8) (= cell_7_1 9))))
(assert
 (let (($x2633 (= cell_8_1 9)))
 (let (($x901 (= cell_8_1 8)))
 (let (($x1790 (= cell_8_1 7)))
 (let (($x101 (= cell_8_1 6)))
 (let (($x907 (= cell_8_1 5)))
 (let (($x2645 (= cell_8_1 4)))
 (let (($x958 (= cell_8_1 3)))
 (let (($x201 (= cell_8_1 2)))
 (let (($x6985 (= cell_8_1 1)))
 (or $x6985 $x201 $x958 $x2645 $x907 $x101 $x1790 $x901 $x2633)))))))))))
(assert
 (let (($x3855 (= cell_9_1 9)))
 (let (($x1358 (= cell_9_1 8)))
 (let (($x3894 (= cell_9_1 7)))
 (let (($x1424 (= cell_9_1 6)))
 (let (($x7770 (= cell_9_1 5)))
 (let (($x3709 (= cell_9_1 4)))
 (let (($x2041 (= cell_9_1 3)))
 (let (($x6784 (= cell_9_1 2)))
 (let (($x1418 (= cell_9_1 1)))
 (or $x1418 $x6784 $x2041 $x3709 $x7770 $x1424 $x3894 $x1358 $x3855)))))))))))
(assert
 (let (($x2227 (= cell_1_2 9)))
 (let (($x166 (= cell_1_2 8)))
 (let (($x576 (= cell_1_2 7)))
 (let (($x659 (= cell_1_2 6)))
 (let (($x3358 (= cell_1_2 5)))
 (let (($x241 (= cell_1_2 4)))
 (let (($x2720 (= cell_1_2 3)))
 (let (($x3550 (= cell_1_2 2)))
 (let (($x1180 (= cell_1_2 1)))
 (or $x1180 $x3550 $x2720 $x241 $x3358 $x659 $x576 $x166 $x2227)))))))))))
(assert
 (let (($x2685 (= cell_2_2 2)))
 (or (= cell_2_2 1) $x2685 (= cell_2_2 3) (= cell_2_2 4) (= cell_2_2 5) (= cell_2_2 6) (= cell_2_2 7) (= cell_2_2 8) (= cell_2_2 9))))
(assert
 (let (($x291 (= cell_3_2 9)))
 (let (($x3403 (= cell_3_2 8)))
 (let (($x3081 (= cell_3_2 7)))
 (let (($x2365 (= cell_3_2 6)))
 (let (($x531 (= cell_3_2 5)))
 (let (($x3270 (= cell_3_2 4)))
 (let (($x3693 (= cell_3_2 3)))
 (let (($x520 (= cell_3_2 2)))
 (let (($x2105 (= cell_3_2 1)))
 (or $x2105 $x520 $x3693 $x3270 $x531 $x2365 $x3081 $x3403 $x291)))))))))))
(assert
 (let (($x2687 (= cell_4_2 1)))
 (or $x2687 (= cell_4_2 2) (= cell_4_2 3) (= cell_4_2 4) (= cell_4_2 5) (= cell_4_2 6) (= cell_4_2 7) (= cell_4_2 8) (= cell_4_2 9))))
(assert
 (let (($x3144 (= cell_5_2 9)))
 (let (($x2213 (= cell_5_2 8)))
 (let (($x2774 (= cell_5_2 7)))
 (let (($x7329 (= cell_5_2 6)))
 (let (($x981 (= cell_5_2 5)))
 (let (($x46 (= cell_5_2 4)))
 (let (($x1243 (= cell_5_2 3)))
 (let (($x342 (= cell_5_2 2)))
 (let (($x6859 (= cell_5_2 1)))
 (or $x6859 $x342 $x1243 $x46 $x981 $x7329 $x2774 $x2213 $x3144)))))))))))
(assert
 (let (($x177 (= cell_6_2 9)))
 (let (($x2298 (= cell_6_2 8)))
 (let (($x3667 (= cell_6_2 7)))
 (let (($x2556 (= cell_6_2 6)))
 (let (($x3698 (= cell_6_2 5)))
 (let (($x129 (= cell_6_2 4)))
 (let (($x3176 (= cell_6_2 3)))
 (let (($x6813 (= cell_6_2 2)))
 (let (($x2779 (= cell_6_2 1)))
 (or $x2779 $x6813 $x3176 $x129 $x3698 $x2556 $x3667 $x2298 $x177)))))))))))
(assert
 (let (($x1764 (= cell_7_2 9)))
 (let (($x572 (= cell_7_2 8)))
 (let (($x2340 (= cell_7_2 7)))
 (let (($x1753 (= cell_7_2 6)))
 (let (($x2536 (= cell_7_2 5)))
 (let (($x1725 (= cell_7_2 4)))
 (let (($x4187 (= cell_7_2 3)))
 (let (($x1066 (= cell_7_2 2)))
 (let (($x3990 (= cell_7_2 1)))
 (or $x3990 $x1066 $x4187 $x1725 $x2536 $x1753 $x2340 $x572 $x1764)))))))))))
(assert
 (let (($x38 (= cell_8_2 9)))
 (let (($x2884 (= cell_8_2 8)))
 (let (($x261 (= cell_8_2 7)))
 (let (($x1650 (= cell_8_2 6)))
 (let (($x182 (= cell_8_2 5)))
 (let (($x2048 (= cell_8_2 4)))
 (let (($x3743 (= cell_8_2 3)))
 (let (($x2912 (= cell_8_2 2)))
 (let (($x3542 (= cell_8_2 1)))
 (or $x3542 $x2912 $x3743 $x2048 $x182 $x1650 $x261 $x2884 $x38)))))))))))
(assert
 (let (($x1884 (= cell_9_2 9)))
 (let (($x3012 (= cell_9_2 8)))
 (let (($x1704 (= cell_9_2 7)))
 (let (($x1282 (= cell_9_2 6)))
 (let (($x3085 (= cell_9_2 5)))
 (let (($x3289 (= cell_9_2 4)))
 (let (($x509 (= cell_9_2 3)))
 (let (($x1984 (= cell_9_2 2)))
 (let (($x16 (= cell_9_2 1)))
 (or $x16 $x1984 $x509 $x3289 $x3085 $x1282 $x1704 $x3012 $x1884)))))))))))
(assert
 (let (($x2517 (= cell_1_3 9)))
 (let (($x802 (= cell_1_3 8)))
 (let (($x2692 (= cell_1_3 7)))
 (let (($x7674 (= cell_1_3 6)))
 (let (($x1057 (= cell_1_3 5)))
 (let (($x3429 (= cell_1_3 4)))
 (let (($x681 (= cell_1_3 3)))
 (let (($x1749 (= cell_1_3 2)))
 (let (($x2311 (= cell_1_3 1)))
 (or $x2311 $x1749 $x681 $x3429 $x1057 $x7674 $x2692 $x802 $x2517)))))))))))
(assert
 (let (($x422 (= cell_2_3 1)))
 (or $x422 (= cell_2_3 2) (= cell_2_3 3) (= cell_2_3 4) (= cell_2_3 5) (= cell_2_3 6) (= cell_2_3 7) (= cell_2_3 8) (= cell_2_3 9))))
(assert
 (let (($x2436 (= cell_3_3 9)))
 (let (($x1411 (= cell_3_3 8)))
 (let (($x1815 (= cell_3_3 7)))
 (let (($x3159 (= cell_3_3 6)))
 (let (($x2029 (= cell_3_3 5)))
 (let (($x2037 (= cell_3_3 4)))
 (let (($x2608 (= cell_3_3 3)))
 (let (($x3684 (= cell_3_3 2)))
 (let (($x709 (= cell_3_3 1)))
 (or $x709 $x3684 $x2608 $x2037 $x2029 $x3159 $x1815 $x1411 $x2436)))))))))))
(assert
 (let (($x1410 (= cell_4_3 9)))
 (let (($x2481 (= cell_4_3 8)))
 (let (($x7515 (= cell_4_3 7)))
 (let (($x3818 (= cell_4_3 6)))
 (let (($x285 (= cell_4_3 5)))
 (let (($x2634 (= cell_4_3 4)))
 (let (($x2171 (= cell_4_3 3)))
 (let (($x2252 (= cell_4_3 2)))
 (let (($x1546 (= cell_4_3 1)))
 (or $x1546 $x2252 $x2171 $x2634 $x285 $x3818 $x7515 $x2481 $x1410)))))))))))
(assert
 (let (($x3809 (= cell_5_3 9)))
 (let (($x2305 (= cell_5_3 8)))
 (let (($x1606 (= cell_5_3 7)))
 (let (($x3246 (= cell_5_3 6)))
 (let (($x344 (= cell_5_3 5)))
 (let (($x627 (= cell_5_3 4)))
 (let (($x2297 (= cell_5_3 3)))
 (let (($x3430 (= cell_5_3 2)))
 (let (($x2551 (= cell_5_3 1)))
 (or $x2551 $x3430 $x2297 $x627 $x344 $x3246 $x1606 $x2305 $x3809)))))))))))
(assert
 (let (($x1049 (= cell_6_3 9)))
 (let (($x629 (= cell_6_3 8)))
 (let (($x2407 (= cell_6_3 7)))
 (let (($x6736 (= cell_6_3 6)))
 (let (($x2570 (= cell_6_3 5)))
 (let (($x2828 (= cell_6_3 4)))
 (let (($x2875 (= cell_6_3 3)))
 (let (($x2121 (= cell_6_3 2)))
 (let (($x1841 (= cell_6_3 1)))
 (or $x1841 $x2121 $x2875 $x2828 $x2570 $x6736 $x2407 $x629 $x1049)))))))))))
(assert
 (let (($x2611 (= cell_7_3 9)))
 (let (($x1319 (= cell_7_3 8)))
 (let (($x717 (= cell_7_3 7)))
 (let (($x1202 (= cell_7_3 6)))
 (let (($x1859 (= cell_7_3 5)))
 (let (($x2669 (= cell_7_3 4)))
 (let (($x853 (= cell_7_3 3)))
 (let (($x3739 (= cell_7_3 2)))
 (let (($x3006 (= cell_7_3 1)))
 (or $x3006 $x3739 $x853 $x2669 $x1859 $x1202 $x717 $x1319 $x2611)))))))))))
(assert
 (let (($x2101 (= cell_8_3 2)))
 (or (= cell_8_3 1) $x2101 (= cell_8_3 3) (= cell_8_3 4) (= cell_8_3 5) (= cell_8_3 6) (= cell_8_3 7) (= cell_8_3 8) (= cell_8_3 9))))
(assert
 (let (($x812 (= cell_9_3 9)))
 (let (($x7671 (= cell_9_3 8)))
 (let (($x3642 (= cell_9_3 7)))
 (let (($x2258 (= cell_9_3 6)))
 (let (($x989 (= cell_9_3 5)))
 (let (($x2462 (= cell_9_3 4)))
 (let (($x6722 (= cell_9_3 3)))
 (let (($x3517 (= cell_9_3 2)))
 (let (($x3059 (= cell_9_3 1)))
 (or $x3059 $x3517 $x6722 $x2462 $x989 $x2258 $x3642 $x7671 $x812)))))))))))
(assert
 (let (($x991 (= cell_1_4 9)))
 (let (($x1867 (= cell_1_4 8)))
 (let (($x54 (= cell_1_4 7)))
 (let (($x2754 (= cell_1_4 6)))
 (let (($x2795 (= cell_1_4 5)))
 (let (($x982 (= cell_1_4 4)))
 (let (($x2010 (= cell_1_4 3)))
 (let (($x3048 (= cell_1_4 2)))
 (let (($x300 (= cell_1_4 1)))
 (or $x300 $x3048 $x2010 $x982 $x2795 $x2754 $x54 $x1867 $x991)))))))))))
(assert
 (let (($x1017 (= cell_2_4 9)))
 (let (($x2257 (= cell_2_4 8)))
 (let (($x295 (= cell_2_4 7)))
 (let (($x682 (= cell_2_4 6)))
 (let (($x6809 (= cell_2_4 5)))
 (let (($x1222 (= cell_2_4 4)))
 (let (($x2827 (= cell_2_4 3)))
 (let (($x1063 (= cell_2_4 2)))
 (let (($x415 (= cell_2_4 1)))
 (or $x415 $x1063 $x2827 $x1222 $x6809 $x682 $x295 $x2257 $x1017)))))))))))
(assert
 (let (($x1185 (= cell_3_4 9)))
 (let (($x1480 (= cell_3_4 8)))
 (let (($x3682 (= cell_3_4 7)))
 (let (($x701 (= cell_3_4 6)))
 (let (($x2940 (= cell_3_4 5)))
 (let (($x3492 (= cell_3_4 4)))
 (let (($x2069 (= cell_3_4 3)))
 (let (($x1849 (= cell_3_4 2)))
 (let (($x1838 (= cell_3_4 1)))
 (or $x1838 $x1849 $x2069 $x3492 $x2940 $x701 $x3682 $x1480 $x1185)))))))))))
(assert
 (let (($x4111 (= cell_4_4 9)))
 (let (($x114 (= cell_4_4 8)))
 (let (($x3670 (= cell_4_4 7)))
 (let (($x2932 (= cell_4_4 6)))
 (let (($x3483 (= cell_4_4 5)))
 (let (($x1963 (= cell_4_4 4)))
 (let (($x2050 (= cell_4_4 3)))
 (let (($x120 (= cell_4_4 2)))
 (let (($x1384 (= cell_4_4 1)))
 (or $x1384 $x120 $x2050 $x1963 $x3483 $x2932 $x3670 $x114 $x4111)))))))))))
(assert
 (let (($x1439 (= cell_5_4 9)))
 (let (($x222 (= cell_5_4 8)))
 (let (($x2800 (= cell_5_4 7)))
 (let (($x3194 (= cell_5_4 6)))
 (let (($x4095 (= cell_5_4 5)))
 (let (($x1810 (= cell_5_4 4)))
 (let (($x466 (= cell_5_4 3)))
 (let (($x2235 (= cell_5_4 2)))
 (let (($x3926 (= cell_5_4 1)))
 (or $x3926 $x2235 $x466 $x1810 $x4095 $x3194 $x2800 $x222 $x1439)))))))))))
(assert
 (let (($x3762 (= cell_6_4 2)))
 (or (= cell_6_4 1) $x3762 (= cell_6_4 3) (= cell_6_4 4) (= cell_6_4 5) (= cell_6_4 6) (= cell_6_4 7) (= cell_6_4 8) (= cell_6_4 9))))
(assert
 (let (($x3976 (= cell_7_4 9)))
 (let (($x2674 (= cell_7_4 8)))
 (let (($x3716 (= cell_7_4 7)))
 (let (($x4179 (= cell_7_4 6)))
 (let (($x3080 (= cell_7_4 5)))
 (let (($x2516 (= cell_7_4 4)))
 (let (($x7764 (= cell_7_4 3)))
 (let (($x2935 (= cell_7_4 2)))
 (let (($x671 (= cell_7_4 1)))
 (or $x671 $x2935 $x7764 $x2516 $x3080 $x4179 $x3716 $x2674 $x3976)))))))))))
(assert
 (let (($x3817 (= cell_8_4 1)))
 (or $x3817 (= cell_8_4 2) (= cell_8_4 3) (= cell_8_4 4) (= cell_8_4 5) (= cell_8_4 6) (= cell_8_4 7) (= cell_8_4 8) (= cell_8_4 9))))
(assert
 (let (($x2302 (= cell_9_4 9)))
 (let (($x1774 (= cell_9_4 8)))
 (let (($x713 (= cell_9_4 7)))
 (let (($x3557 (= cell_9_4 6)))
 (let (($x2532 (= cell_9_4 5)))
 (let (($x2148 (= cell_9_4 4)))
 (let (($x1462 (= cell_9_4 3)))
 (let (($x1832 (= cell_9_4 2)))
 (let (($x2938 (= cell_9_4 1)))
 (or $x2938 $x1832 $x1462 $x2148 $x2532 $x3557 $x713 $x1774 $x2302)))))))))))
(assert
 (let (($x31 (= cell_1_5 9)))
 (let (($x4239 (= cell_1_5 8)))
 (let (($x3225 (= cell_1_5 7)))
 (let (($x2199 (= cell_1_5 6)))
 (let (($x4124 (= cell_1_5 5)))
 (let (($x6581 (= cell_1_5 4)))
 (let (($x528 (= cell_1_5 3)))
 (let (($x1991 (= cell_1_5 2)))
 (let (($x2973 (= cell_1_5 1)))
 (or $x2973 $x1991 $x528 $x6581 $x4124 $x2199 $x3225 $x4239 $x31)))))))))))
(assert
 (let (($x934 (= cell_2_5 9)))
 (let (($x3420 (= cell_2_5 8)))
 (let (($x1541 (= cell_2_5 7)))
 (let (($x2187 (= cell_2_5 6)))
 (let (($x7693 (= cell_2_5 5)))
 (let (($x631 (= cell_2_5 4)))
 (let (($x2823 (= cell_2_5 3)))
 (let (($x1296 (= cell_2_5 2)))
 (let (($x7633 (= cell_2_5 1)))
 (or $x7633 $x1296 $x2823 $x631 $x7693 $x2187 $x1541 $x3420 $x934)))))))))))
(assert
 (let (($x2190 (= cell_3_5 1)))
 (or $x2190 (= cell_3_5 2) (= cell_3_5 3) (= cell_3_5 4) (= cell_3_5 5) (= cell_3_5 6) (= cell_3_5 7) (= cell_3_5 8) (= cell_3_5 9))))
(assert
 (let (($x2671 (= cell_4_5 9)))
 (let (($x2161 (= cell_4_5 8)))
 (let (($x3367 (= cell_4_5 7)))
 (let (($x74 (= cell_4_5 6)))
 (let (($x2397 (= cell_4_5 5)))
 (let (($x4118 (= cell_4_5 4)))
 (let (($x2214 (= cell_4_5 3)))
 (let (($x296 (= cell_4_5 2)))
 (let (($x333 (= cell_4_5 1)))
 (or $x333 $x296 $x2214 $x4118 $x2397 $x74 $x3367 $x2161 $x2671)))))))))))
(assert
 (let (($x1496 (= cell_5_5 9)))
 (let (($x2419 (= cell_5_5 8)))
 (let (($x1310 (= cell_5_5 7)))
 (let (($x1101 (= cell_5_5 6)))
 (let (($x2316 (= cell_5_5 5)))
 (let (($x7963 (= cell_5_5 4)))
 (let (($x3295 (= cell_5_5 3)))
 (let (($x2383 (= cell_5_5 2)))
 (let (($x4083 (= cell_5_5 1)))
 (or $x4083 $x2383 $x3295 $x7963 $x2316 $x1101 $x1310 $x2419 $x1496)))))))))))
(assert
 (let (($x928 (= cell_6_5 9)))
 (let (($x2393 (= cell_6_5 8)))
 (let (($x886 (= cell_6_5 7)))
 (let (($x3115 (= cell_6_5 6)))
 (let (($x3062 (= cell_6_5 5)))
 (let (($x369 (= cell_6_5 4)))
 (let (($x817 (= cell_6_5 3)))
 (let (($x935 (= cell_6_5 2)))
 (let (($x4045 (= cell_6_5 1)))
 (or $x4045 $x935 $x817 $x369 $x3062 $x3115 $x886 $x2393 $x928)))))))))))
(assert
 (let (($x1456 (= cell_7_5 2)))
 (or (= cell_7_5 1) $x1456 (= cell_7_5 3) (= cell_7_5 4) (= cell_7_5 5) (= cell_7_5 6) (= cell_7_5 7) (= cell_7_5 8) (= cell_7_5 9))))
(assert
 (let (($x1016 (= cell_8_5 2)))
 (let (($x2732 (= cell_8_5 1)))
 (or $x2732 $x1016 (= cell_8_5 3) (= cell_8_5 4) (= cell_8_5 5) (= cell_8_5 6) (= cell_8_5 7) (= cell_8_5 8) (= cell_8_5 9)))))
(assert
 (let (($x3165 (= cell_9_5 9)))
 (let (($x4036 (= cell_9_5 8)))
 (let (($x431 (= cell_9_5 7)))
 (let (($x2538 (= cell_9_5 6)))
 (let (($x1883 (= cell_9_5 5)))
 (let (($x79 (= cell_9_5 4)))
 (let (($x4089 (= cell_9_5 3)))
 (let (($x6753 (= cell_9_5 2)))
 (let (($x2539 (= cell_9_5 1)))
 (or $x2539 $x6753 $x4089 $x79 $x1883 $x2538 $x431 $x4036 $x3165)))))))))))
(assert
 (let (($x1834 (= cell_1_6 9)))
 (let (($x3293 (= cell_1_6 8)))
 (let (($x2361 (= cell_1_6 7)))
 (let (($x1566 (= cell_1_6 6)))
 (let (($x2793 (= cell_1_6 5)))
 (let (($x1267 (= cell_1_6 4)))
 (let (($x1064 (= cell_1_6 3)))
 (let (($x3902 (= cell_1_6 2)))
 (let (($x274 (= cell_1_6 1)))
 (or $x274 $x3902 $x1064 $x1267 $x2793 $x1566 $x2361 $x3293 $x1834)))))))))))
(assert
 (let (($x1805 (= cell_2_6 9)))
 (let (($x642 (= cell_2_6 8)))
 (let (($x1335 (= cell_2_6 7)))
 (let (($x1737 (= cell_2_6 6)))
 (let (($x2463 (= cell_2_6 5)))
 (let (($x3197 (= cell_2_6 4)))
 (let (($x137 (= cell_2_6 3)))
 (let (($x2156 (= cell_2_6 2)))
 (let (($x323 (= cell_2_6 1)))
 (or $x323 $x2156 $x137 $x3197 $x2463 $x1737 $x1335 $x642 $x1805)))))))))))
(assert
 (let (($x2749 (= cell_3_6 2)))
 (or (= cell_3_6 1) $x2749 (= cell_3_6 3) (= cell_3_6 4) (= cell_3_6 5) (= cell_3_6 6) (= cell_3_6 7) (= cell_3_6 8) (= cell_3_6 9))))
(assert
 (let (($x1033 (= cell_4_6 9)))
 (let (($x183 (= cell_4_6 8)))
 (let (($x1586 (= cell_4_6 7)))
 (let (($x4155 (= cell_4_6 6)))
 (let (($x3798 (= cell_4_6 5)))
 (let (($x430 (= cell_4_6 4)))
 (let (($x1821 (= cell_4_6 3)))
 (let (($x1652 (= cell_4_6 2)))
 (let (($x1146 (= cell_4_6 1)))
 (or $x1146 $x1652 $x1821 $x430 $x3798 $x4155 $x1586 $x183 $x1033)))))))))))
(assert
 (let (($x1024 (= cell_5_6 9)))
 (let (($x1378 (= cell_5_6 8)))
 (let (($x1697 (= cell_5_6 7)))
 (let (($x990 (= cell_5_6 6)))
 (let (($x3044 (= cell_5_6 5)))
 (let (($x4049 (= cell_5_6 4)))
 (let (($x433 (= cell_5_6 3)))
 (let (($x1568 (= cell_5_6 2)))
 (let (($x254 (= cell_5_6 1)))
 (or $x254 $x1568 $x433 $x4049 $x3044 $x990 $x1697 $x1378 $x1024)))))))))))
(assert
 (let (($x537 (= cell_6_6 1)))
 (or $x537 (= cell_6_6 2) (= cell_6_6 3) (= cell_6_6 4) (= cell_6_6 5) (= cell_6_6 6) (= cell_6_6 7) (= cell_6_6 8) (= cell_6_6 9))))
(assert
 (let (($x1110 (= cell_7_6 9)))
 (let (($x783 (= cell_7_6 8)))
 (let (($x962 (= cell_7_6 7)))
 (let (($x2352 (= cell_7_6 6)))
 (let (($x2471 (= cell_7_6 5)))
 (let (($x837 (= cell_7_6 4)))
 (let (($x7783 (= cell_7_6 3)))
 (let (($x1138 (= cell_7_6 2)))
 (let (($x1664 (= cell_7_6 1)))
 (or $x1664 $x1138 $x7783 $x837 $x2471 $x2352 $x962 $x783 $x1110)))))))))))
(assert
 (let (($x1591 (= cell_8_6 2)))
 (let (($x926 (= cell_8_6 1)))
 (or $x926 $x1591 (= cell_8_6 3) (= cell_8_6 4) (= cell_8_6 5) (= cell_8_6 6) (= cell_8_6 7) (= cell_8_6 8) (= cell_8_6 9)))))
(assert
 (let (($x3737 (= cell_9_6 9)))
 (let (($x1836 (= cell_9_6 8)))
 (let (($x1361 (= cell_9_6 7)))
 (let (($x521 (= cell_9_6 6)))
 (let (($x3073 (= cell_9_6 5)))
 (let (($x8016 (= cell_9_6 4)))
 (let (($x1806 (= cell_9_6 3)))
 (let (($x1100 (= cell_9_6 2)))
 (let (($x2149 (= cell_9_6 1)))
 (or $x2149 $x1100 $x1806 $x8016 $x3073 $x521 $x1361 $x1836 $x3737)))))))))))
(assert
 (let (($x1728 (= cell_1_7 2)))
 (or (= cell_1_7 1) $x1728 (= cell_1_7 3) (= cell_1_7 4) (= cell_1_7 5) (= cell_1_7 6) (= cell_1_7 7) (= cell_1_7 8) (= cell_1_7 9))))
(assert
 (let (($x78 (= cell_2_7 9)))
 (let (($x7030 (= cell_2_7 8)))
 (let (($x1829 (= cell_2_7 7)))
 (let (($x3314 (= cell_2_7 6)))
 (let (($x1972 (= cell_2_7 5)))
 (let (($x2762 (= cell_2_7 4)))
 (let (($x7428 (= cell_2_7 3)))
 (let (($x1876 (= cell_2_7 2)))
 (let (($x870 (= cell_2_7 1)))
 (or $x870 $x1876 $x7428 $x2762 $x1972 $x3314 $x1829 $x7030 $x78)))))))))))
(assert
 (let (($x2734 (= cell_3_7 9)))
 (let (($x2914 (= cell_3_7 8)))
 (let (($x3558 (= cell_3_7 7)))
 (let (($x7792 (= cell_3_7 6)))
 (let (($x2937 (= cell_3_7 5)))
 (let (($x606 (= cell_3_7 4)))
 (let (($x1298 (= cell_3_7 3)))
 (let (($x6952 (= cell_3_7 2)))
 (let (($x1645 (= cell_3_7 1)))
 (or $x1645 $x6952 $x1298 $x606 $x2937 $x7792 $x3558 $x2914 $x2734)))))))))))
(assert
 (let (($x1707 (= cell_4_7 9)))
 (let (($x3210 (= cell_4_7 8)))
 (let (($x1722 (= cell_4_7 7)))
 (let (($x2927 (= cell_4_7 6)))
 (let (($x2412 (= cell_4_7 5)))
 (let (($x1171 (= cell_4_7 4)))
 (let (($x1532 (= cell_4_7 3)))
 (let (($x878 (= cell_4_7 2)))
 (let (($x2630 (= cell_4_7 1)))
 (or $x2630 $x878 $x1532 $x1171 $x2412 $x2927 $x1722 $x3210 $x1707)))))))))))
(assert
 (let (($x2798 (= cell_5_7 1)))
 (or $x2798 (= cell_5_7 2) (= cell_5_7 3) (= cell_5_7 4) (= cell_5_7 5) (= cell_5_7 6) (= cell_5_7 7) (= cell_5_7 8) (= cell_5_7 9))))
(assert
 (let (($x611 (= cell_6_7 2)))
 (let (($x1946 (= cell_6_7 1)))
 (or $x1946 $x611 (= cell_6_7 3) (= cell_6_7 4) (= cell_6_7 5) (= cell_6_7 6) (= cell_6_7 7) (= cell_6_7 8) (= cell_6_7 9)))))
(assert
 (let (($x745 (= cell_7_7 9)))
 (let (($x885 (= cell_7_7 8)))
 (let (($x157 (= cell_7_7 7)))
 (let (($x1102 (= cell_7_7 6)))
 (let (($x276 (= cell_7_7 5)))
 (let (($x592 (= cell_7_7 4)))
 (let (($x3872 (= cell_7_7 3)))
 (let (($x796 (= cell_7_7 2)))
 (let (($x7651 (= cell_7_7 1)))
 (or $x7651 $x796 $x3872 $x592 $x276 $x1102 $x157 $x885 $x745)))))))))))
(assert
 (let (($x2761 (= cell_8_7 9)))
 (let (($x1712 (= cell_8_7 8)))
 (let (($x7980 (= cell_8_7 7)))
 (let (($x2160 (= cell_8_7 6)))
 (let (($x2926 (= cell_8_7 5)))
 (let (($x549 (= cell_8_7 4)))
 (let (($x2648 (= cell_8_7 3)))
 (let (($x1182 (= cell_8_7 2)))
 (let (($x757 (= cell_8_7 1)))
 (or $x757 $x1182 $x2648 $x549 $x2926 $x2160 $x7980 $x1712 $x2761)))))))))))
(assert
 (let (($x1466 (= cell_9_7 9)))
 (let (($x4125 (= cell_9_7 8)))
 (let (($x7767 (= cell_9_7 7)))
 (let (($x80 (= cell_9_7 6)))
 (let (($x2039 (= cell_9_7 5)))
 (let (($x3271 (= cell_9_7 4)))
 (let (($x2084 (= cell_9_7 3)))
 (let (($x2035 (= cell_9_7 2)))
 (let (($x781 (= cell_9_7 1)))
 (or $x781 $x2035 $x2084 $x3271 $x2039 $x80 $x7767 $x4125 $x1466)))))))))))
(assert
 (let (($x992 (= cell_1_8 1)))
 (or $x992 (= cell_1_8 2) (= cell_1_8 3) (= cell_1_8 4) (= cell_1_8 5) (= cell_1_8 6) (= cell_1_8 7) (= cell_1_8 8) (= cell_1_8 9))))
(assert
 (let (($x1461 (= cell_2_8 2)))
 (let (($x4018 (= cell_2_8 1)))
 (or $x4018 $x1461 (= cell_2_8 3) (= cell_2_8 4) (= cell_2_8 5) (= cell_2_8 6) (= cell_2_8 7) (= cell_2_8 8) (= cell_2_8 9)))))
(assert
 (let (($x2975 (= cell_3_8 9)))
 (let (($x3811 (= cell_3_8 8)))
 (let (($x1010 (= cell_3_8 7)))
 (let (($x370 (= cell_3_8 6)))
 (let (($x2872 (= cell_3_8 5)))
 (let (($x2349 (= cell_3_8 4)))
 (let (($x3400 (= cell_3_8 3)))
 (let (($x6629 (= cell_3_8 2)))
 (let (($x3434 (= cell_3_8 1)))
 (or $x3434 $x6629 $x3400 $x2349 $x2872 $x370 $x1010 $x3811 $x2975)))))))))))
(assert
 (let (($x2583 (= cell_4_8 9)))
 (let (($x815 (= cell_4_8 8)))
 (let (($x1234 (= cell_4_8 7)))
 (let (($x822 (= cell_4_8 6)))
 (let (($x1657 (= cell_4_8 5)))
 (let (($x1370 (= cell_4_8 4)))
 (let (($x1848 (= cell_4_8 3)))
 (let (($x3334 (= cell_4_8 2)))
 (let (($x1463 (= cell_4_8 1)))
 (or $x1463 $x3334 $x1848 $x1370 $x1657 $x822 $x1234 $x815 $x2583)))))))))))
(assert
 (let (($x3562 (= cell_5_8 9)))
 (let (($x2242 (= cell_5_8 8)))
 (let (($x7825 (= cell_5_8 7)))
 (let (($x654 (= cell_5_8 6)))
 (let (($x2614 (= cell_5_8 5)))
 (let (($x1812 (= cell_5_8 4)))
 (let (($x738 (= cell_5_8 3)))
 (let (($x2185 (= cell_5_8 2)))
 (let (($x1321 (= cell_5_8 1)))
 (or $x1321 $x2185 $x738 $x1812 $x2614 $x654 $x7825 $x2242 $x3562)))))))))))
(assert
 (let (($x1623 (= cell_6_8 2)))
 (let (($x4035 (= cell_6_8 1)))
 (or $x4035 $x1623 (= cell_6_8 3) (= cell_6_8 4) (= cell_6_8 5) (= cell_6_8 6) (= cell_6_8 7) (= cell_6_8 8) (= cell_6_8 9)))))
(assert
 (let (($x3786 (= cell_7_8 9)))
 (let (($x6711 (= cell_7_8 8)))
 (let (($x2255 (= cell_7_8 7)))
 (let (($x1081 (= cell_7_8 6)))
 (let (($x1177 (= cell_7_8 5)))
 (let (($x4245 (= cell_7_8 4)))
 (let (($x752 (= cell_7_8 3)))
 (let (($x1667 (= cell_7_8 2)))
 (let (($x313 (= cell_7_8 1)))
 (or $x313 $x1667 $x752 $x4245 $x1177 $x1081 $x2255 $x6711 $x3786)))))))))))
(assert
 (let (($x3449 (= cell_8_8 9)))
 (let (($x2518 (= cell_8_8 8)))
 (let (($x1052 (= cell_8_8 7)))
 (let (($x2344 (= cell_8_8 6)))
 (let (($x102 (= cell_8_8 5)))
 (let (($x236 (= cell_8_8 4)))
 (let (($x1858 (= cell_8_8 3)))
 (let (($x650 (= cell_8_8 2)))
 (let (($x1103 (= cell_8_8 1)))
 (or $x1103 $x650 $x1858 $x236 $x102 $x2344 $x1052 $x2518 $x3449)))))))))))
(assert
 (let (($x345 (= cell_9_8 9)))
 (let (($x2377 (= cell_9_8 8)))
 (let (($x175 (= cell_9_8 7)))
 (let (($x2359 (= cell_9_8 6)))
 (let (($x561 (= cell_9_8 5)))
 (let (($x1819 (= cell_9_8 4)))
 (let (($x7301 (= cell_9_8 3)))
 (let (($x3854 (= cell_9_8 2)))
 (let (($x3298 (= cell_9_8 1)))
 (or $x3298 $x3854 $x7301 $x1819 $x561 $x2359 $x175 $x2377 $x345)))))))))))
(assert
 (let (($x1223 (= cell_1_9 9)))
 (let (($x7999 (= cell_1_9 8)))
 (let (($x2336 (= cell_1_9 7)))
 (let (($x1817 (= cell_1_9 6)))
 (let (($x712 (= cell_1_9 5)))
 (let (($x2949 (= cell_1_9 4)))
 (let (($x930 (= cell_1_9 3)))
 (let (($x3149 (= cell_1_9 2)))
 (let (($x950 (= cell_1_9 1)))
 (or $x950 $x3149 $x930 $x2949 $x712 $x1817 $x2336 $x7999 $x1223)))))))))))
(assert
 (let (($x548 (= cell_2_9 9)))
 (let (($x7649 (= cell_2_9 8)))
 (let (($x3892 (= cell_2_9 7)))
 (let (($x2172 (= cell_2_9 6)))
 (let (($x2018 (= cell_2_9 5)))
 (let (($x3534 (= cell_2_9 4)))
 (let (($x189 (= cell_2_9 3)))
 (let (($x6906 (= cell_2_9 2)))
 (let (($x3966 (= cell_2_9 1)))
 (or $x3966 $x6906 $x189 $x3534 $x2018 $x2172 $x3892 $x7649 $x548)))))))))))
(assert
 (let (($x66 (= cell_3_9 9)))
 (let (($x1936 (= cell_3_9 8)))
 (let (($x4210 (= cell_3_9 7)))
 (let (($x3394 (= cell_3_9 6)))
 (let (($x2406 (= cell_3_9 5)))
 (let (($x2308 (= cell_3_9 4)))
 (let (($x50 (= cell_3_9 3)))
 (let (($x979 (= cell_3_9 2)))
 (let (($x3951 (= cell_3_9 1)))
 (or $x3951 $x979 $x50 $x2308 $x2406 $x3394 $x4210 $x1936 $x66)))))))))))
(assert
 (let (($x3827 (= cell_4_9 9)))
 (let (($x3983 (= cell_4_9 8)))
 (let (($x1334 (= cell_4_9 7)))
 (let (($x484 (= cell_4_9 6)))
 (let (($x1373 (= cell_4_9 5)))
 (let (($x1307 (= cell_4_9 4)))
 (let (($x2930 (= cell_4_9 3)))
 (let (($x1019 (= cell_4_9 2)))
 (let (($x365 (= cell_4_9 1)))
 (or $x365 $x1019 $x2930 $x1307 $x1373 $x484 $x1334 $x3983 $x3827)))))))))))
(assert
 (let (($x984 (= cell_5_9 2)))
 (or (= cell_5_9 1) $x984 (= cell_5_9 3) (= cell_5_9 4) (= cell_5_9 5) (= cell_5_9 6) (= cell_5_9 7) (= cell_5_9 8) (= cell_5_9 9))))
(assert
 (let (($x2858 (= cell_6_9 9)))
 (let (($x938 (= cell_6_9 8)))
 (let (($x662 (= cell_6_9 7)))
 (let (($x4180 (= cell_6_9 6)))
 (let (($x1135 (= cell_6_9 5)))
 (let (($x3050 (= cell_6_9 4)))
 (let (($x1675 (= cell_6_9 3)))
 (let (($x2439 (= cell_6_9 2)))
 (let (($x2785 (= cell_6_9 1)))
 (or $x2785 $x2439 $x1675 $x3050 $x1135 $x4180 $x662 $x938 $x2858)))))))))))
(assert
 (let (($x2081 (= cell_7_9 9)))
 (let (($x3999 (= cell_7_9 8)))
 (let (($x4166 (= cell_7_9 7)))
 (let (($x7322 (= cell_7_9 6)))
 (let (($x2703 (= cell_7_9 5)))
 (let (($x7866 (= cell_7_9 4)))
 (let (($x2142 (= cell_7_9 3)))
 (let (($x1530 (= cell_7_9 2)))
 (let (($x6865 (= cell_7_9 1)))
 (or $x6865 $x1530 $x2142 $x7866 $x2703 $x7322 $x4166 $x3999 $x2081)))))))))))
(assert
 (let (($x1721 (= cell_8_9 9)))
 (let (($x2155 (= cell_8_9 8)))
 (let (($x3987 (= cell_8_9 7)))
 (let (($x1250 (= cell_8_9 6)))
 (let (($x1997 (= cell_8_9 5)))
 (let (($x304 (= cell_8_9 4)))
 (let (($x2876 (= cell_8_9 3)))
 (let (($x2414 (= cell_8_9 2)))
 (let (($x1309 (= cell_8_9 1)))
 (or $x1309 $x2414 $x2876 $x304 $x1997 $x1250 $x3987 $x2155 $x1721)))))))))))
(assert
 (let (($x2045 (= cell_9_9 1)))
 (or $x2045 (= cell_9_9 2) (= cell_9_9 3) (= cell_9_9 4) (= cell_9_9 5) (= cell_9_9 6) (= cell_9_9 7) (= cell_9_9 8) (= cell_9_9 9))))
(assert
 (and (distinct cell_1_1 cell_1_2 cell_1_3 cell_1_4 cell_1_5 cell_1_6 cell_1_7 cell_1_8 cell_1_9) true))
(assert
 (and (distinct cell_2_1 cell_2_2 cell_2_3 cell_2_4 cell_2_5 cell_2_6 cell_2_7 cell_2_8 cell_2_9) true))
(assert
 (and (distinct cell_3_1 cell_3_2 cell_3_3 cell_3_4 cell_3_5 cell_3_6 cell_3_7 cell_3_8 cell_3_9) true))
(assert
 (and (distinct cell_4_1 cell_4_2 cell_4_3 cell_4_4 cell_4_5 cell_4_6 cell_4_7 cell_4_8 cell_4_9) true))
(assert
 (and (distinct cell_5_1 cell_5_2 cell_5_3 cell_5_4 cell_5_5 cell_5_6 cell_5_7 cell_5_8 cell_5_9) true))
(assert
 (and (distinct cell_6_1 cell_6_2 cell_6_3 cell_6_4 cell_6_5 cell_6_6 cell_6_7 cell_6_8 cell_6_9) true))
(assert
 (and (distinct cell_7_1 cell_7_2 cell_7_3 cell_7_4 cell_7_5 cell_7_6 cell_7_7 cell_7_8 cell_7_9) true))
(assert
 (and (distinct cell_8_1 cell_8_2 cell_8_3 cell_8_4 cell_8_5 cell_8_6 cell_8_7 cell_8_8 cell_8_9) true))
(assert
 (and (distinct cell_9_1 cell_9_2 cell_9_3 cell_9_4 cell_9_5 cell_9_6 cell_9_7 cell_9_8 cell_9_9) true))
(assert
 (and (distinct cell_1_1 cell_2_1 cell_3_1 cell_4_1 cell_5_1 cell_6_1 cell_7_1 cell_8_1 cell_9_1) true))
(assert
 (and (distinct cell_1_2 cell_2_2 cell_3_2 cell_4_2 cell_5_2 cell_6_2 cell_7_2 cell_8_2 cell_9_2) true))
(assert
 (and (distinct cell_1_3 cell_2_3 cell_3_3 cell_4_3 cell_5_3 cell_6_3 cell_7_3 cell_8_3 cell_9_3) true))
(assert
 (and (distinct cell_1_4 cell_2_4 cell_3_4 cell_4_4 cell_5_4 cell_6_4 cell_7_4 cell_8_4 cell_9_4) true))
(assert
 (and (distinct cell_1_5 cell_2_5 cell_3_5 cell_4_5 cell_5_5 cell_6_5 cell_7_5 cell_8_5 cell_9_5) true))
(assert
 (and (distinct cell_1_6 cell_2_6 cell_3_6 cell_4_6 cell_5_6 cell_6_6 cell_7_6 cell_8_6 cell_9_6) true))
(assert
 (and (distinct cell_1_7 cell_2_7 cell_3_7 cell_4_7 cell_5_7 cell_6_7 cell_7_7 cell_8_7 cell_9_7) true))
(assert
 (and (distinct cell_1_8 cell_2_8 cell_3_8 cell_4_8 cell_5_8 cell_6_8 cell_7_8 cell_8_8 cell_9_8) true))
(assert
 (and (distinct cell_1_9 cell_2_9 cell_3_9 cell_4_9 cell_5_9 cell_6_9 cell_7_9 cell_8_9 cell_9_9) true))
(assert
 (and (distinct cell_1_1 cell_1_2 cell_1_3 cell_2_1 cell_2_2 cell_2_3 cell_3_1 cell_3_2 cell_3_3) true))
(assert
 (and (distinct cell_1_4 cell_1_5 cell_1_6 cell_2_4 cell_2_5 cell_2_6 cell_3_4 cell_3_5 cell_3_6) true))
(assert
 (and (distinct cell_1_7 cell_1_8 cell_1_9 cell_2_7 cell_2_8 cell_2_9 cell_3_7 cell_3_8 cell_3_9) true))
(assert
 (and (distinct cell_4_1 cell_4_2 cell_4_3 cell_5_1 cell_5_2 cell_5_3 cell_6_1 cell_6_2 cell_6_3) true))
(assert
 (and (distinct cell_4_4 cell_4_5 cell_4_6 cell_5_4 cell_5_5 cell_5_6 cell_6_4 cell_6_5 cell_6_6) true))
(assert
 (and (distinct cell_4_7 cell_4_8 cell_4_9 cell_5_7 cell_5_8 cell_5_9 cell_6_7 cell_6_8 cell_6_9) true))
(assert
 (and (distinct cell_7_1 cell_7_2 cell_7_3 cell_8_1 cell_8_2 cell_8_3 cell_9_1 cell_9_2 cell_9_3) true))
(assert
 (and (distinct cell_7_4 cell_7_5 cell_7_6 cell_8_4 cell_8_5 cell_8_6 cell_9_4 cell_9_5 cell_9_6) true))
(assert
 (and (distinct cell_7_7 cell_7_8 cell_7_9 cell_8_7 cell_8_8 cell_8_9 cell_9_7 cell_9_8 cell_9_9) true))
(assert
 (let (($x3306 (and (distinct cell_5_9 cell_6_8 cell_7_7 cell_8_6) true)))
 (let (($x470 (and (distinct cell_2_9 cell_3_8 cell_4_7 cell_5_6 cell_6_5 cell_7_4 cell_8_3 cell_9_2) true)))
 (let (($x2960 (and (distinct cell_1_8 cell_2_7 cell_3_6 cell_4_5 cell_5_4 cell_6_3 cell_7_2 cell_8_1) true)))
 (let (($x2211 (and (distinct cell_1_5 cell_2_4 cell_3_3 cell_4_2) true)))
 (let (($x8020 (and (distinct cell_5_1 cell_6_2 cell_7_3 cell_8_4) true)))
 (let (($x3163 (and (distinct cell_2_1 cell_3_2 cell_4_3 cell_5_4 cell_6_5 cell_7_6 cell_8_7 cell_9_8) true)))
 (let (($x1393 (and (distinct cell_1_2 cell_2_3 cell_3_4 cell_4_5 cell_5_6 cell_6_7 cell_7_8 cell_8_9) true)))
 (let (($x3462 (and (distinct cell_1_5 cell_2_6 cell_3_7 cell_4_8) true)))
 (and $x3462 $x1393 $x3163 $x8020 $x2211 $x2960 $x470 $x3306))))))))))
(assert
 (= cell_9_8 2))
(check-sat)
